out/bwp_11_13_1_lp.out
4
7 -0    7 0
3 1    3 1
-0 2    0 2
-0 3    0 3
-0 -0    1 1
1 2    2 3
3 2    4 3
8 2    9 3
7 1    9 1
10 -0    10 3
4 -0    6 1
5 2    7 3
2 -0    2 1
